Maximize
  - 3.6814340096758 edge_0_1_0_0 - 1.9021559429637 edge_0_2_0_0
   - 0.289105277235 edge_0_3_0_0 - 3.237390787912001 edge_0_4_0_0
   - 2.9035630895034 edge_0_6_0_0 - 2.84188 edge_0_7_0_0
   - 1.597187389061 edge_0_8_0_0 - 2.7642007675386 edge_0_10_0_0
   - 2.7250088554958 edge_0_11_0_0 - 3.3106254885587 edge_0_12_0_0
   - 0.34130175592019 edge_1_2_0_0 - 0.4130816604213972 edge_1_3_0_0
   - 1.058396272954267 edge_1_4_0_0 - 1.131390086055986 edge_1_6_0_0
   - 0.89665006499801 edge_1_7_0_0 - 1.095413229601196 edge_1_8_0_0
   - 1.646997131524714 edge_1_11_0_0 - 0.6856257460931722 edge_1_12_0_0
   - 0.49062833259743 edge_2_1_0_0 + 1.692815920507198 edge_2_3_0_0
   + 0.825094113986927 edge_2_4_0_0 + 0.9835695773313583 edge_2_6_0_0
   + 0.131296 edge_2_7_0_0 + 0.3989517844954047 edge_2_8_0_0
   + 0.0352903213316601 edge_2_10_0_0 + 0.2258988855699287 edge_2_11_0_0
   + 0.734646 edge_2_12_0_0 + 1.505834809812564 edge_3_1_0_0
   + 3.094242314999808 edge_3_2_0_0 + 1.799807650180026 edge_3_4_0_0
   + 0.081725326081932 edge_3_5_0_0 + 2.366696047611 edge_3_6_0_0
   + 1.606765983075 edge_3_7_0_0 + 1.246706733620174 edge_3_8_0_0
   + 1.685274721926028 edge_3_10_0_0 + 2.07646 edge_3_11_0_0
   + 3.03236 edge_3_12_0_0 - 0.3169544331787496 edge_4_1_0_0
   - 0.1053224072524 edge_4_2_0_0 + 0.15077308271316 edge_4_3_0_0
   + 0.6105403325924652 edge_4_5_0_0 + 1.069295327354221 edge_4_6_0_0
   + 0.15282019898032 edge_4_7_0_0 - 0.3143328449696541 edge_4_8_0_0
   + 0.0894412829426309 edge_4_10_0_0 + 0.0353596355693923 edge_4_11_0_0
   + 0.2520783071109581 edge_4_12_0_0 - 1.77408087278867 edge_5_2_0_0
   + 0.1358199815176009 edge_5_4_0_0 - 0.3285822331143 edge_5_7_0_0
   - 0.5776230753999 edge_5_8_0_0 + 0.12045667091982 edge_5_11_0_0
   - 0.5365968840044401 edge_5_12_0_0 - 0.9312980266243315 edge_6_1_0_0
   + 1.433719243943988 edge_6_2_0_0 + 2.949787604512099 edge_6_3_0_0
   + 3.227751512829538 edge_6_4_0_0 + 3.901223499044677 edge_6_5_0_0
   + 1.4445265620186 edge_6_7_0_0 + 0.9640515898652753 edge_6_8_0_0
   + 1.344014120315345 edge_6_10_0_0 + 1.399966080085399 edge_6_11_0_0
   + 1.026537282525875 edge_6_12_0_0 - 0.49137790379993 edge_7_1_0_0
   - 0.229708 edge_7_2_0_0 - 0.17756755608 edge_7_3_0_0
   + 1.6398468402376 edge_7_4_0_0 + 2.1050549899572 edge_7_6_0_0
   + 2.29192 edge_7_8_0_0 + 2.48152 edge_7_10_0_0 + 0.53498 edge_7_11_0_0
   + 0.024264702215208 edge_7_12_0_0 - 0.4941032853998186 edge_8_1_0_0
   + 0.6956377118337189 edge_8_2_0_0 + 0.4878556219448586 edge_8_3_0_0
   + 0.9176987692593345 edge_8_4_0_0 + 1.144827137925327 edge_8_6_0_0
   + 1.53947 edge_8_7_0_0 + 2.36773 edge_8_10_0_0
   + 1.012596624023521 edge_8_11_0_0 + 0.3458783102500377 edge_8_12_0_0
   - 0.5786650003350495 edge_10_1_0_0 + 0.3368103859940934 edge_10_2_0_0
   + 0.3959257918740983 edge_10_3_0_0 + 0.3675514745947824 edge_10_4_0_0
   + 0.3407380479327967 edge_10_5_0_0 + 0.4577305624232486 edge_10_6_0_0
   + 1.5841 edge_10_7_0_0 + 2.36759 edge_10_8_0_0
   + 2.900424598682684 edge_10_11_0_0 + 0.3775229832970804 edge_10_12_0_0
   - 1.03902518166664 edge_11_1_0_0 - 0.0129907 edge_11_2_0_0
   + 0.49077256321203 edge_11_3_0_0 + 1.542205678674143 edge_11_4_0_0
   + 2.561396145014302 edge_11_5_0_0 + 1.282916715726707 edge_11_6_0_0
   + 2.28408 edge_11_7_0_0 + 2.72533 edge_11_8_0_0 + 3.2038 edge_11_10_0_0
   + 1.166626307638462 edge_11_12_0_0 - 1.718619053510036 edge_12_1_0_0
   - 1.595423396443569 edge_12_2_0_0 - 1.531661267345338 edge_12_4_0_0
   - 2.137008231051905 edge_12_6_0_0 - 1.5611093722168 edge_12_7_0_0
   - 1.273852215449316 edge_12_8_0_0 - 1.129723093243601 edge_12_10_0_0
   - 0.8741508810586633 edge_12_11_0_0
Subject To
 one_parent_1: edge_0_1_0_0 + edge_2_1_0_0 + edge_3_1_0_0 + edge_4_1_0_0
   + edge_6_1_0_0 + edge_7_1_0_0 + edge_8_1_0_0 + edge_10_1_0_0
   + edge_11_1_0_0 + edge_12_1_0_0 = 1
 consume_one_flow_unit_1: flow_0_1_0_0 - flow_1_2_0_0 - flow_1_3_0_0
   - flow_1_4_0_0 - flow_1_6_0_0 - flow_1_7_0_0 - flow_1_8_0_0
   - flow_1_11_0_0 - flow_1_12_0_0 + flow_2_1_0_0 + flow_3_1_0_0
   + flow_4_1_0_0 + flow_6_1_0_0 + flow_7_1_0_0 + flow_8_1_0_0
   + flow_10_1_0_0 + flow_11_1_0_0 + flow_12_1_0_0 = 1
 one_parent_2: edge_0_2_0_0 + edge_1_2_0_0 + edge_3_2_0_0 + edge_4_2_0_0
   + edge_5_2_0_0 + edge_6_2_0_0 + edge_7_2_0_0 + edge_8_2_0_0
   + edge_10_2_0_0 + edge_11_2_0_0 + edge_12_2_0_0 = 1
 consume_one_flow_unit_2: flow_0_2_0_0 + flow_1_2_0_0 - flow_2_1_0_0
   - flow_2_3_0_0 - flow_2_4_0_0 - flow_2_6_0_0 - flow_2_7_0_0
   - flow_2_8_0_0 - flow_2_10_0_0 - flow_2_11_0_0 - flow_2_12_0_0
   + flow_3_2_0_0 + flow_4_2_0_0 + flow_5_2_0_0 + flow_6_2_0_0
   + flow_7_2_0_0 + flow_8_2_0_0 + flow_10_2_0_0 + flow_11_2_0_0
   + flow_12_2_0_0 = 1
 one_parent_3: edge_0_3_0_0 + edge_1_3_0_0 + edge_2_3_0_0 + edge_4_3_0_0
   + edge_6_3_0_0 + edge_7_3_0_0 + edge_8_3_0_0 + edge_10_3_0_0
   + edge_11_3_0_0 = 1
 consume_one_flow_unit_3: flow_0_3_0_0 + flow_1_3_0_0 + flow_2_3_0_0
   - flow_3_1_0_0 - flow_3_2_0_0 - flow_3_4_0_0 - flow_3_5_0_0
   - flow_3_6_0_0 - flow_3_7_0_0 - flow_3_8_0_0 - flow_3_10_0_0
   - flow_3_11_0_0 - flow_3_12_0_0 + flow_4_3_0_0 + flow_6_3_0_0
   + flow_7_3_0_0 + flow_8_3_0_0 + flow_10_3_0_0 + flow_11_3_0_0 = 1
 one_parent_4: edge_0_4_0_0 + edge_1_4_0_0 + edge_2_4_0_0 + edge_3_4_0_0
   + edge_5_4_0_0 + edge_6_4_0_0 + edge_7_4_0_0 + edge_8_4_0_0
   + edge_10_4_0_0 + edge_11_4_0_0 + edge_12_4_0_0 = 1
 consume_one_flow_unit_4: flow_0_4_0_0 + flow_1_4_0_0 + flow_2_4_0_0
   + flow_3_4_0_0 - flow_4_1_0_0 - flow_4_2_0_0 - flow_4_3_0_0
   - flow_4_5_0_0 - flow_4_6_0_0 - flow_4_7_0_0 - flow_4_8_0_0
   - flow_4_10_0_0 - flow_4_11_0_0 - flow_4_12_0_0 + flow_5_4_0_0
   + flow_6_4_0_0 + flow_7_4_0_0 + flow_8_4_0_0 + flow_10_4_0_0
   + flow_11_4_0_0 + flow_12_4_0_0 = 1
 one_parent_5: edge_3_5_0_0 + edge_4_5_0_0 + edge_6_5_0_0 + edge_10_5_0_0
   + edge_11_5_0_0 = 1
 consume_one_flow_unit_5: flow_3_5_0_0 + flow_4_5_0_0 - flow_5_2_0_0
   - flow_5_4_0_0 - flow_5_7_0_0 - flow_5_8_0_0 - flow_5_11_0_0
   - flow_5_12_0_0 + flow_6_5_0_0 + flow_10_5_0_0 + flow_11_5_0_0 = 1
 one_parent_6: edge_0_6_0_0 + edge_1_6_0_0 + edge_2_6_0_0 + edge_3_6_0_0
   + edge_4_6_0_0 + edge_7_6_0_0 + edge_8_6_0_0 + edge_10_6_0_0
   + edge_11_6_0_0 + edge_12_6_0_0 = 1
 consume_one_flow_unit_6: flow_0_6_0_0 + flow_1_6_0_0 + flow_2_6_0_0
   + flow_3_6_0_0 + flow_4_6_0_0 - flow_6_1_0_0 - flow_6_2_0_0
   - flow_6_3_0_0 - flow_6_4_0_0 - flow_6_5_0_0 - flow_6_7_0_0
   - flow_6_8_0_0 - flow_6_10_0_0 - flow_6_11_0_0 - flow_6_12_0_0
   + flow_7_6_0_0 + flow_8_6_0_0 + flow_10_6_0_0 + flow_11_6_0_0
   + flow_12_6_0_0 = 1
 one_parent_7: edge_0_7_0_0 + edge_1_7_0_0 + edge_2_7_0_0 + edge_3_7_0_0
   + edge_4_7_0_0 + edge_5_7_0_0 + edge_6_7_0_0 + edge_8_7_0_0
   + edge_10_7_0_0 + edge_11_7_0_0 + edge_12_7_0_0 = 1
 consume_one_flow_unit_7: flow_0_7_0_0 + flow_1_7_0_0 + flow_2_7_0_0
   + flow_3_7_0_0 + flow_4_7_0_0 + flow_5_7_0_0 + flow_6_7_0_0
   - flow_7_1_0_0 - flow_7_2_0_0 - flow_7_3_0_0 - flow_7_4_0_0
   - flow_7_6_0_0 - flow_7_8_0_0 - flow_7_10_0_0 - flow_7_11_0_0
   - flow_7_12_0_0 + flow_8_7_0_0 + flow_10_7_0_0 + flow_11_7_0_0
   + flow_12_7_0_0 = 1
 one_parent_8: edge_0_8_0_0 + edge_1_8_0_0 + edge_2_8_0_0 + edge_3_8_0_0
   + edge_4_8_0_0 + edge_5_8_0_0 + edge_6_8_0_0 + edge_7_8_0_0
   + edge_10_8_0_0 + edge_11_8_0_0 + edge_12_8_0_0 = 1
 consume_one_flow_unit_8: flow_0_8_0_0 + flow_1_8_0_0 + flow_2_8_0_0
   + flow_3_8_0_0 + flow_4_8_0_0 + flow_5_8_0_0 + flow_6_8_0_0
   + flow_7_8_0_0 - flow_8_1_0_0 - flow_8_2_0_0 - flow_8_3_0_0
   - flow_8_4_0_0 - flow_8_6_0_0 - flow_8_7_0_0 - flow_8_10_0_0
   - flow_8_11_0_0 - flow_8_12_0_0 + flow_10_8_0_0 + flow_11_8_0_0
   + flow_12_8_0_0 = 1
 one_parent_9: = 1
 consume_one_flow_unit_9: = 1
 one_parent_10: edge_0_10_0_0 + edge_2_10_0_0 + edge_3_10_0_0
   + edge_4_10_0_0 + edge_6_10_0_0 + edge_7_10_0_0 + edge_8_10_0_0
   + edge_11_10_0_0 + edge_12_10_0_0 = 1
 consume_one_flow_unit_10: flow_0_10_0_0 + flow_2_10_0_0 + flow_3_10_0_0
   + flow_4_10_0_0 + flow_6_10_0_0 + flow_7_10_0_0 + flow_8_10_0_0
   - flow_10_1_0_0 - flow_10_2_0_0 - flow_10_3_0_0 - flow_10_4_0_0
   - flow_10_5_0_0 - flow_10_6_0_0 - flow_10_7_0_0 - flow_10_8_0_0
   - flow_10_11_0_0 - flow_10_12_0_0 + flow_11_10_0_0 + flow_12_10_0_0 = 1
 one_parent_11: edge_0_11_0_0 + edge_1_11_0_0 + edge_2_11_0_0
   + edge_3_11_0_0 + edge_4_11_0_0 + edge_5_11_0_0 + edge_6_11_0_0
   + edge_7_11_0_0 + edge_8_11_0_0 + edge_10_11_0_0 + edge_12_11_0_0 = 1
 consume_one_flow_unit_11: flow_0_11_0_0 + flow_1_11_0_0 + flow_2_11_0_0
   + flow_3_11_0_0 + flow_4_11_0_0 + flow_5_11_0_0 + flow_6_11_0_0
   + flow_7_11_0_0 + flow_8_11_0_0 + flow_10_11_0_0 - flow_11_1_0_0
   - flow_11_2_0_0 - flow_11_3_0_0 - flow_11_4_0_0 - flow_11_5_0_0
   - flow_11_6_0_0 - flow_11_7_0_0 - flow_11_8_0_0 - flow_11_10_0_0
   - flow_11_12_0_0 + flow_12_11_0_0 = 1
 one_parent_12: edge_0_12_0_0 + edge_1_12_0_0 + edge_2_12_0_0
   + edge_3_12_0_0 + edge_4_12_0_0 + edge_5_12_0_0 + edge_6_12_0_0
   + edge_7_12_0_0 + edge_8_12_0_0 + edge_10_12_0_0 + edge_11_12_0_0 = 1
 consume_one_flow_unit_12: flow_0_12_0_0 + flow_1_12_0_0 + flow_2_12_0_0
   + flow_3_12_0_0 + flow_4_12_0_0 + flow_5_12_0_0 + flow_6_12_0_0
   + flow_7_12_0_0 + flow_8_12_0_0 + flow_10_12_0_0 + flow_11_12_0_0
   - flow_12_1_0_0 - flow_12_2_0_0 - flow_12_4_0_0 - flow_12_6_0_0
   - flow_12_7_0_0 - flow_12_8_0_0 - flow_12_10_0_0 - flow_12_11_0_0 = 1
 root_flow: flow_0_1_0_0 + flow_0_2_0_0 + flow_0_3_0_0 + flow_0_4_0_0
   + flow_0_6_0_0 + flow_0_7_0_0 + flow_0_8_0_0 + flow_0_10_0_0
   + flow_0_11_0_0 + flow_0_12_0_0 = 12
 inactive_no_flow_0_1_0_0: flow_0_1_0_0 - 1000 edge_0_1_0_0 <= 0
 inactive_no_flow_0_2_0_0: flow_0_2_0_0 - 1000 edge_0_2_0_0 <= 0
 inactive_no_flow_0_3_0_0: flow_0_3_0_0 - 1000 edge_0_3_0_0 <= 0
 inactive_no_flow_0_4_0_0: flow_0_4_0_0 - 1000 edge_0_4_0_0 <= 0
 inactive_no_flow_0_6_0_0: flow_0_6_0_0 - 1000 edge_0_6_0_0 <= 0
 inactive_no_flow_0_7_0_0: flow_0_7_0_0 - 1000 edge_0_7_0_0 <= 0
 inactive_no_flow_0_8_0_0: flow_0_8_0_0 - 1000 edge_0_8_0_0 <= 0
 inactive_no_flow_0_10_0_0: flow_0_10_0_0 - 1000 edge_0_10_0_0 <= 0
 inactive_no_flow_0_11_0_0: flow_0_11_0_0 - 1000 edge_0_11_0_0 <= 0
 inactive_no_flow_0_12_0_0: flow_0_12_0_0 - 1000 edge_0_12_0_0 <= 0
 inactive_no_flow_1_2_0_0: flow_1_2_0_0 - 1000 edge_1_2_0_0 <= 0
 inactive_no_flow_1_3_0_0: flow_1_3_0_0 - 1000 edge_1_3_0_0 <= 0
 inactive_no_flow_1_4_0_0: flow_1_4_0_0 - 1000 edge_1_4_0_0 <= 0
 inactive_no_flow_1_6_0_0: flow_1_6_0_0 - 1000 edge_1_6_0_0 <= 0
 inactive_no_flow_1_7_0_0: flow_1_7_0_0 - 1000 edge_1_7_0_0 <= 0
 inactive_no_flow_1_8_0_0: flow_1_8_0_0 - 1000 edge_1_8_0_0 <= 0
 inactive_no_flow_1_11_0_0: flow_1_11_0_0 - 1000 edge_1_11_0_0 <= 0
 inactive_no_flow_1_12_0_0: flow_1_12_0_0 - 1000 edge_1_12_0_0 <= 0
 inactive_no_flow_2_1_0_0: flow_2_1_0_0 - 1000 edge_2_1_0_0 <= 0
 inactive_no_flow_2_3_0_0: flow_2_3_0_0 - 1000 edge_2_3_0_0 <= 0
 inactive_no_flow_2_4_0_0: flow_2_4_0_0 - 1000 edge_2_4_0_0 <= 0
 inactive_no_flow_2_6_0_0: flow_2_6_0_0 - 1000 edge_2_6_0_0 <= 0
 inactive_no_flow_2_7_0_0: flow_2_7_0_0 - 1000 edge_2_7_0_0 <= 0
 inactive_no_flow_2_8_0_0: flow_2_8_0_0 - 1000 edge_2_8_0_0 <= 0
 inactive_no_flow_2_10_0_0: flow_2_10_0_0 - 1000 edge_2_10_0_0 <= 0
 inactive_no_flow_2_11_0_0: flow_2_11_0_0 - 1000 edge_2_11_0_0 <= 0
 inactive_no_flow_2_12_0_0: flow_2_12_0_0 - 1000 edge_2_12_0_0 <= 0
 inactive_no_flow_3_1_0_0: flow_3_1_0_0 - 1000 edge_3_1_0_0 <= 0
 inactive_no_flow_3_2_0_0: flow_3_2_0_0 - 1000 edge_3_2_0_0 <= 0
 inactive_no_flow_3_4_0_0: flow_3_4_0_0 - 1000 edge_3_4_0_0 <= 0
 inactive_no_flow_3_5_0_0: flow_3_5_0_0 - 1000 edge_3_5_0_0 <= 0
 inactive_no_flow_3_6_0_0: flow_3_6_0_0 - 1000 edge_3_6_0_0 <= 0
 inactive_no_flow_3_7_0_0: flow_3_7_0_0 - 1000 edge_3_7_0_0 <= 0
 inactive_no_flow_3_8_0_0: flow_3_8_0_0 - 1000 edge_3_8_0_0 <= 0
 inactive_no_flow_3_10_0_0: flow_3_10_0_0 - 1000 edge_3_10_0_0 <= 0
 inactive_no_flow_3_11_0_0: flow_3_11_0_0 - 1000 edge_3_11_0_0 <= 0
 inactive_no_flow_3_12_0_0: flow_3_12_0_0 - 1000 edge_3_12_0_0 <= 0
 inactive_no_flow_4_1_0_0: flow_4_1_0_0 - 1000 edge_4_1_0_0 <= 0
 inactive_no_flow_4_2_0_0: flow_4_2_0_0 - 1000 edge_4_2_0_0 <= 0
 inactive_no_flow_4_3_0_0: flow_4_3_0_0 - 1000 edge_4_3_0_0 <= 0
 inactive_no_flow_4_5_0_0: flow_4_5_0_0 - 1000 edge_4_5_0_0 <= 0
 inactive_no_flow_4_6_0_0: flow_4_6_0_0 - 1000 edge_4_6_0_0 <= 0
 inactive_no_flow_4_7_0_0: flow_4_7_0_0 - 1000 edge_4_7_0_0 <= 0
 inactive_no_flow_4_8_0_0: flow_4_8_0_0 - 1000 edge_4_8_0_0 <= 0
 inactive_no_flow_4_10_0_0: flow_4_10_0_0 - 1000 edge_4_10_0_0 <= 0
 inactive_no_flow_4_11_0_0: flow_4_11_0_0 - 1000 edge_4_11_0_0 <= 0
 inactive_no_flow_4_12_0_0: flow_4_12_0_0 - 1000 edge_4_12_0_0 <= 0
 inactive_no_flow_5_2_0_0: flow_5_2_0_0 - 1000 edge_5_2_0_0 <= 0
 inactive_no_flow_5_4_0_0: flow_5_4_0_0 - 1000 edge_5_4_0_0 <= 0
 inactive_no_flow_5_7_0_0: flow_5_7_0_0 - 1000 edge_5_7_0_0 <= 0
 inactive_no_flow_5_8_0_0: flow_5_8_0_0 - 1000 edge_5_8_0_0 <= 0
 inactive_no_flow_5_11_0_0: flow_5_11_0_0 - 1000 edge_5_11_0_0 <= 0
 inactive_no_flow_5_12_0_0: flow_5_12_0_0 - 1000 edge_5_12_0_0 <= 0
 inactive_no_flow_6_1_0_0: flow_6_1_0_0 - 1000 edge_6_1_0_0 <= 0
 inactive_no_flow_6_2_0_0: flow_6_2_0_0 - 1000 edge_6_2_0_0 <= 0
 inactive_no_flow_6_3_0_0: flow_6_3_0_0 - 1000 edge_6_3_0_0 <= 0
 inactive_no_flow_6_4_0_0: flow_6_4_0_0 - 1000 edge_6_4_0_0 <= 0
 inactive_no_flow_6_5_0_0: flow_6_5_0_0 - 1000 edge_6_5_0_0 <= 0
 inactive_no_flow_6_7_0_0: flow_6_7_0_0 - 1000 edge_6_7_0_0 <= 0
 inactive_no_flow_6_8_0_0: flow_6_8_0_0 - 1000 edge_6_8_0_0 <= 0
 inactive_no_flow_6_10_0_0: flow_6_10_0_0 - 1000 edge_6_10_0_0 <= 0
 inactive_no_flow_6_11_0_0: flow_6_11_0_0 - 1000 edge_6_11_0_0 <= 0
 inactive_no_flow_6_12_0_0: flow_6_12_0_0 - 1000 edge_6_12_0_0 <= 0
 inactive_no_flow_7_1_0_0: flow_7_1_0_0 - 1000 edge_7_1_0_0 <= 0
 inactive_no_flow_7_2_0_0: flow_7_2_0_0 - 1000 edge_7_2_0_0 <= 0
 inactive_no_flow_7_3_0_0: flow_7_3_0_0 - 1000 edge_7_3_0_0 <= 0
 inactive_no_flow_7_4_0_0: flow_7_4_0_0 - 1000 edge_7_4_0_0 <= 0
 inactive_no_flow_7_6_0_0: flow_7_6_0_0 - 1000 edge_7_6_0_0 <= 0
 inactive_no_flow_7_8_0_0: flow_7_8_0_0 - 1000 edge_7_8_0_0 <= 0
 inactive_no_flow_7_10_0_0: flow_7_10_0_0 - 1000 edge_7_10_0_0 <= 0
 inactive_no_flow_7_11_0_0: flow_7_11_0_0 - 1000 edge_7_11_0_0 <= 0
 inactive_no_flow_7_12_0_0: flow_7_12_0_0 - 1000 edge_7_12_0_0 <= 0
 inactive_no_flow_8_1_0_0: flow_8_1_0_0 - 1000 edge_8_1_0_0 <= 0
 inactive_no_flow_8_2_0_0: flow_8_2_0_0 - 1000 edge_8_2_0_0 <= 0
 inactive_no_flow_8_3_0_0: flow_8_3_0_0 - 1000 edge_8_3_0_0 <= 0
 inactive_no_flow_8_4_0_0: flow_8_4_0_0 - 1000 edge_8_4_0_0 <= 0
 inactive_no_flow_8_6_0_0: flow_8_6_0_0 - 1000 edge_8_6_0_0 <= 0
 inactive_no_flow_8_7_0_0: flow_8_7_0_0 - 1000 edge_8_7_0_0 <= 0
 inactive_no_flow_8_10_0_0: flow_8_10_0_0 - 1000 edge_8_10_0_0 <= 0
 inactive_no_flow_8_11_0_0: flow_8_11_0_0 - 1000 edge_8_11_0_0 <= 0
 inactive_no_flow_8_12_0_0: flow_8_12_0_0 - 1000 edge_8_12_0_0 <= 0
 inactive_no_flow_10_1_0_0: flow_10_1_0_0 - 1000 edge_10_1_0_0 <= 0
 inactive_no_flow_10_2_0_0: flow_10_2_0_0 - 1000 edge_10_2_0_0 <= 0
 inactive_no_flow_10_3_0_0: flow_10_3_0_0 - 1000 edge_10_3_0_0 <= 0
 inactive_no_flow_10_4_0_0: flow_10_4_0_0 - 1000 edge_10_4_0_0 <= 0
 inactive_no_flow_10_5_0_0: flow_10_5_0_0 - 1000 edge_10_5_0_0 <= 0
 inactive_no_flow_10_6_0_0: flow_10_6_0_0 - 1000 edge_10_6_0_0 <= 0
 inactive_no_flow_10_7_0_0: flow_10_7_0_0 - 1000 edge_10_7_0_0 <= 0
 inactive_no_flow_10_8_0_0: flow_10_8_0_0 - 1000 edge_10_8_0_0 <= 0
 inactive_no_flow_10_11_0_0: flow_10_11_0_0 - 1000 edge_10_11_0_0 <= 0
 inactive_no_flow_10_12_0_0: flow_10_12_0_0 - 1000 edge_10_12_0_0 <= 0
 inactive_no_flow_11_1_0_0: flow_11_1_0_0 - 1000 edge_11_1_0_0 <= 0
 inactive_no_flow_11_2_0_0: flow_11_2_0_0 - 1000 edge_11_2_0_0 <= 0
 inactive_no_flow_11_3_0_0: flow_11_3_0_0 - 1000 edge_11_3_0_0 <= 0
 inactive_no_flow_11_4_0_0: flow_11_4_0_0 - 1000 edge_11_4_0_0 <= 0
 inactive_no_flow_11_5_0_0: flow_11_5_0_0 - 1000 edge_11_5_0_0 <= 0
 inactive_no_flow_11_6_0_0: flow_11_6_0_0 - 1000 edge_11_6_0_0 <= 0
 inactive_no_flow_11_7_0_0: flow_11_7_0_0 - 1000 edge_11_7_0_0 <= 0
 inactive_no_flow_11_8_0_0: flow_11_8_0_0 - 1000 edge_11_8_0_0 <= 0
 inactive_no_flow_11_10_0_0: flow_11_10_0_0 - 1000 edge_11_10_0_0 <= 0
 inactive_no_flow_11_12_0_0: flow_11_12_0_0 - 1000 edge_11_12_0_0 <= 0
 inactive_no_flow_12_1_0_0: flow_12_1_0_0 - 1000 edge_12_1_0_0 <= 0
 inactive_no_flow_12_2_0_0: flow_12_2_0_0 - 1000 edge_12_2_0_0 <= 0
 inactive_no_flow_12_4_0_0: flow_12_4_0_0 - 1000 edge_12_4_0_0 <= 0
 inactive_no_flow_12_6_0_0: flow_12_6_0_0 - 1000 edge_12_6_0_0 <= 0
 inactive_no_flow_12_7_0_0: flow_12_7_0_0 - 1000 edge_12_7_0_0 <= 0
 inactive_no_flow_12_8_0_0: flow_12_8_0_0 - 1000 edge_12_8_0_0 <= 0
 inactive_no_flow_12_10_0_0: flow_12_10_0_0 - 1000 edge_12_10_0_0 <= 0
 inactive_no_flow_12_11_0_0: flow_12_11_0_0 - 1000 edge_12_11_0_0 <= 0
Bounds
Binaries
 edge_0_1_0_0 edge_0_2_0_0 edge_0_3_0_0 edge_0_4_0_0 edge_0_6_0_0
 edge_0_7_0_0 edge_0_8_0_0 edge_0_10_0_0 edge_0_11_0_0 edge_0_12_0_0
 edge_1_2_0_0 edge_1_3_0_0 edge_1_4_0_0 edge_1_6_0_0 edge_1_7_0_0
 edge_1_8_0_0 edge_1_11_0_0 edge_1_12_0_0 edge_2_1_0_0 edge_2_3_0_0
 edge_2_4_0_0 edge_2_6_0_0 edge_2_7_0_0 edge_2_8_0_0 edge_2_10_0_0
 edge_2_11_0_0 edge_2_12_0_0 edge_3_1_0_0 edge_3_2_0_0 edge_3_4_0_0
 edge_3_5_0_0 edge_3_6_0_0 edge_3_7_0_0 edge_3_8_0_0 edge_3_10_0_0
 edge_3_11_0_0 edge_3_12_0_0 edge_4_1_0_0 edge_4_2_0_0 edge_4_3_0_0
 edge_4_5_0_0 edge_4_6_0_0 edge_4_7_0_0 edge_4_8_0_0 edge_4_10_0_0
 edge_4_11_0_0 edge_4_12_0_0 edge_5_2_0_0 edge_5_4_0_0 edge_5_7_0_0
 edge_5_8_0_0 edge_5_11_0_0 edge_5_12_0_0 edge_6_1_0_0 edge_6_2_0_0
 edge_6_3_0_0 edge_6_4_0_0 edge_6_5_0_0 edge_6_7_0_0 edge_6_8_0_0
 edge_6_10_0_0 edge_6_11_0_0 edge_6_12_0_0 edge_7_1_0_0 edge_7_2_0_0
 edge_7_3_0_0 edge_7_4_0_0 edge_7_6_0_0 edge_7_8_0_0 edge_7_10_0_0
 edge_7_11_0_0 edge_7_12_0_0 edge_8_1_0_0 edge_8_2_0_0 edge_8_3_0_0
 edge_8_4_0_0 edge_8_6_0_0 edge_8_7_0_0 edge_8_10_0_0 edge_8_11_0_0
 edge_8_12_0_0 edge_10_1_0_0 edge_10_2_0_0 edge_10_3_0_0 edge_10_4_0_0
 edge_10_5_0_0 edge_10_6_0_0 edge_10_7_0_0 edge_10_8_0_0 edge_10_11_0_0
 edge_10_12_0_0 edge_11_1_0_0 edge_11_2_0_0 edge_11_3_0_0 edge_11_4_0_0
 edge_11_5_0_0 edge_11_6_0_0 edge_11_7_0_0 edge_11_8_0_0 edge_11_10_0_0
 edge_11_12_0_0 edge_12_1_0_0 edge_12_2_0_0 edge_12_4_0_0 edge_12_6_0_0
 edge_12_7_0_0 edge_12_8_0_0 edge_12_10_0_0 edge_12_11_0_0
End
